50

98 4 297
98 17 416
96 11 308
95 21 435
94 29 323
93 7 294
92 15 374
91 23 408
89 21 365
88 1 366
88 18 268
88 2 298
86 19 422
83 9 403
83 23 278
82 1 317
80 6 395
79 9 327
78 17 408
76 3 377
76 23 278
75 15 369
73 17 347
67 3 417
63 11 438
63 17 317
62 14 335
55 10 326
54 9 281
53 8 440
52 15 413
51 3 385
51 14 357
51 5 448
47 14 192
45 12 436
45 2 149
42 11 205
42 1 426
40 3 264
37 5 156
37 7 445
36 4 240
36 10 432
29 2 388
29 8 177
25 1 289
24 4 141
20 1 227
20 6 385
